lbl,CUST NO.,READY TIME,XCOORD.,YCOORD.,DEMAND,DUE DATE,SERVICE TIME
7,101,35,35,76,10,215,90
7,144,39,32,77,20,219,90
7,119,134,28,74,20,314,90
7,166,227,27,77,10,407,90
7,35,320,25,80,20,500,90
7,126,414,28,78,10,594,90
7,71,506,30,79,20,686,90
7,9,598,32,79,20,778,90
7,1,690,33,78,20,870,90
7,99,781,34,79,10,961,90
7,53,874,34,82,10,1054,90
